(set-option :print-success false)
(set-logic QF_UF)
(set-info :smt-lib-version 2.0)
(declare-fun A@auth0 () Bool)
(declare-fun B@auth0 () Bool)
(declare-fun C@auth0 () Bool)
(simplify (and (and A@auth0 B@auth0) C@auth0)) 